
letting r = 10
letting n = 9

letting demand =
        [[0,1,1,1,0,0,0,0,0],
         [0,0,0,0,0,0,1,1,0],
         [0,0,0,1,0,1,0,0,1],
         [0,0,0,0,0,0,0,0,0],
         [0,0,0,0,0,1,1,0,0],
         [0,0,0,0,0,0,1,1,0],
         [0,0,0,0,0,0,0,0,0],
         [0,0,0,0,0,0,0,0,0],
         [0,0,0,0,0,0,0,0,0]]


letting capacity_nodes be [4, 4, 3, 3, 4, 5, 1, 5, 1, 5]